NAME : rl1323
COMMENT : 1323-city TSP (Reinelt)
TYPE : TSP
DIMENSION : 1323
EDGE_WEIGHT_TYPE : EUC_2D
NODE_COORD_SECTION
1 1.81920e+04 8.95400e+03
2 1.81920e+04 9.85600e+03
3 1.81920e+04 1.13190e+04
4 1.82720e+04 8.62400e+03
5 1.84160e+04 7.34800e+03
6 1.84160e+04 8.29400e+03
7 1.20000e+03 7.37000e+03
8 1.20000e+03 8.18400e+03
9 1.20000e+03 1.09120e+04
10 1.20000e+03 1.14400e+04
11 1.79040e+04 5.72000e+02
12 1.79040e+04 2.68400e+03
13 1.79040e+04 6.90800e+03
14 1.79040e+04 7.34800e+03
15 1.79040e+04 8.62400e+03
16 8.27200e+03 3.08000e+02
17 8.27200e+03 2.06800e+03
18 8.27200e+03 2.50800e+03
19 8.27200e+03 3.08000e+03
20 8.27200e+03 3.60800e+03
21 8.27200e+03 5.30200e+03
22 8.33600e+03 7.26000e+03
23 8.46400e+03 7.26000e+03
24 8.49600e+03 9.54800e+03
25 8.49600e+03 1.05820e+04
26 8.49600e+03 1.14400e+04
27 1.58880e+04 9.06400e+03
28 1.58880e+04 9.50400e+03
29 1.58880e+04 1.02520e+04
30 1.58880e+04 1.10000e+04
31 1.59360e+04 8.18400e+03
32 1.60480e+04 8.18400e+03
33 1.62080e+04 8.18400e+03
34 1.63360e+04 5.72000e+02
35 1.63360e+04 1.01200e+03
36 1.63360e+04 1.45200e+03
37 1.63360e+04 2.99200e+03
38 1.63360e+04 4.81800e+03
39 1.63360e+04 6.02800e+03
40 1.63360e+04 7.34800e+03
41 1.04000e+03 7.37000e+03
42 1.04000e+03 8.18400e+03
43 1.04000e+03 1.09120e+04
44 1.04000e+03 1.14400e+04
45 4.46400e+03 3.08000e+02
46 4.64000e+03 3.08000e+02
47 4.81600e+03 3.08000e+02
48 4.94400e+03 3.08000e+02
49 5.16800e+03 3.08000e+02
50 5.44000e+03 3.08000e+02
51 5.61600e+03 3.08000e+02
52 5.72800e+03 3.08000e+02
53 5.80800e+03 3.08000e+03
54 5.80800e+03 3.60800e+03
55 5.80800e+03 4.66400e+03
56 5.80800e+03 5.36800e+03
57 5.80800e+03 6.07200e+03
58 5.80800e+03 7.12800e+03
59 5.93600e+03 9.65800e+03
60 5.93600e+03 1.12860e+04
61 1.68480e+04 5.72000e+02
62 1.68480e+04 1.45200e+03
63 1.68480e+04 2.99200e+03
64 1.68480e+04 4.70800e+03
65 1.68480e+04 6.02800e+03
66 1.68480e+04 7.34800e+03
67 1.68480e+04 8.51400e+03
68 1.68480e+04 9.28400e+03
69 1.68480e+04 9.92200e+03
70 1.68480e+04 1.11980e+04
71 8.24000e+03 7.48000e+03
72 8.40000e+03 9.54800e+03
73 8.40000e+03 1.05820e+04
74 8.40000e+03 1.14400e+04
75 1.52000e+03 9.15200e+03
76 1.52000e+03 1.09120e+04
77 1.52000e+03 1.14400e+04
78 1.58400e+03 6.44600e+03
79 1.58400e+03 7.59000e+03
80 1.58400e+03 8.29400e+03
81 5.16800e+03 1.14400e+04
82 5.28000e+03 1.14400e+04
83 5.45600e+03 1.14400e+04
84 5.58400e+03 1.14400e+04
85 5.71200e+03 1.14400e+04
86 2.67200e+03 6.33600e+03
87 2.78400e+03 6.55600e+03
88 2.97600e+03 6.55600e+03
89 3.10400e+03 6.55600e+03
90 3.26400e+03 6.55600e+03
91 3.36000e+03 6.55600e+03
92 3.60000e+03 6.55600e+03
93 3.85600e+03 6.55600e+03
94 3.92000e+03 6.55600e+03
95 4.01600e+03 6.55600e+03
96 4.14400e+03 6.55600e+03
97 4.20800e+03 6.55600e+03
98 4.35200e+03 6.55600e+03
99 4.46400e+03 6.55600e+03
100 4.56000e+03 6.55600e+03
101 4.68800e+03 6.55600e+03
102 4.72000e+03 7.26000e+03
103 4.72000e+03 8.14000e+03
104 4.72000e+03 9.70200e+03
105 4.72000e+03 1.05820e+04
106 4.72000e+03 1.11320e+04
107 1.70080e+04 5.72000e+02
108 1.70080e+04 1.45200e+03
109 1.70080e+04 2.99200e+03
110 1.70080e+04 5.87400e+03
111 1.70080e+04 7.34800e+03
112 1.70720e+04 8.09600e+03
113 1.71360e+04 8.09600e+03
114 1.72800e+04 8.09600e+03
115 1.74560e+04 8.09600e+03
116 1.75200e+04 8.40400e+03
117 1.75200e+04 8.95400e+03
118 1.75200e+04 1.01420e+04
119 1.75200e+04 1.13190e+04
120 8.80000e+02 7.37000e+03
121 8.80000e+02 8.18400e+03
122 8.80000e+02 1.14400e+04
123 4.14400e+03 4.84000e+03
124 4.14400e+03 7.70000e+03
125 4.30400e+03 8.36000e+03
126 4.41600e+03 8.36000e+03
127 4.57600e+03 8.36000e+03
128 4.65600e+03 8.36000e+03
129 4.86400e+03 8.36000e+03
130 5.04000e+03 8.36000e+03
131 5.29600e+03 8.36000e+03
132 5.45600e+03 8.84400e+03
133 5.45600e+03 9.81200e+03
134 5.52000e+03 3.60800e+03
135 5.52000e+03 4.66400e+03
136 5.52000e+03 5.36800e+03
137 5.52000e+03 5.91800e+03
138 5.52000e+03 6.93000e+03
139 1.65600e+04 8.95400e+03
140 1.65600e+04 9.92200e+03
141 1.65920e+04 5.72000e+02
142 1.65920e+04 1.45200e+03
143 1.65920e+04 2.99200e+03
144 1.65920e+04 4.81800e+03
145 1.65920e+04 6.13800e+03
146 1.65920e+04 7.34800e+03
147 7.72800e+03 7.74400e+03
148 7.72800e+03 9.54800e+03
149 7.72800e+03 1.08460e+04
150 7.79200e+03 7.04000e+03
151 7.85600e+03 7.04000e+03
152 7.95200e+03 7.04000e+03
153 8.01600e+03 3.08000e+02
154 8.01600e+03 2.06800e+03
155 8.01600e+03 2.50800e+03
156 8.01600e+03 3.08000e+03
157 8.01600e+03 3.60800e+03
158 8.01600e+03 4.26800e+03
159 8.01600e+03 5.85200e+03
160 1.62720e+04 9.06400e+03
161 1.62720e+04 9.50400e+03
162 1.62720e+04 9.92200e+03
163 1.62720e+04 1.10000e+04
164 1.66400e+04 8.84400e+03
165 1.67200e+04 8.84400e+03
166 1.67840e+04 6.02800e+03
167 1.67840e+04 7.34800e+03
168 1.67840e+04 8.51400e+03
169 4.64000e+02 1.14400e+04
170 5.28000e+02 8.18400e+03
171 6.40000e+02 8.18400e+03
172 7.84000e+02 7.37000e+03
173 7.84000e+02 7.96400e+03
174 7.66400e+03 6.44600e+03
175 7.66400e+03 8.07400e+03
176 7.66400e+03 9.54800e+03
177 7.66400e+03 1.08460e+04
178 7.72800e+03 3.08000e+02
179 7.72800e+03 2.06800e+03
180 7.72800e+03 2.50800e+03
181 7.72800e+03 3.08000e+03
182 7.72800e+03 3.60800e+03
183 7.72800e+03 4.04800e+03
184 7.72800e+03 4.48800e+03
185 5.23200e+03 3.60800e+03
186 5.23200e+03 4.66400e+03
187 5.23200e+03 5.36800e+03
188 5.23200e+03 5.91800e+03
189 5.23200e+03 6.77600e+03
190 5.52000e+03 7.92000e+03
191 3.85600e+03 7.48000e+03
192 3.92000e+03 7.92000e+03
193 4.01600e+03 7.92000e+03
194 4.17600e+03 9.15200e+03
195 4.17600e+03 9.92200e+03
196 4.17600e+03 1.04720e+04
197 4.17600e+03 1.09120e+04
198 4.17600e+03 1.14400e+04
199 5.98400e+03 7.48000e+02
200 6.09600e+03 3.08000e+03
201 6.09600e+03 3.60800e+03
202 6.09600e+03 4.66400e+03
203 6.16000e+03 5.36800e+03
204 6.22400e+03 5.36800e+03
205 6.32000e+03 5.36800e+03
206 6.49600e+03 5.36800e+03
207 6.60800e+03 5.69800e+03
208 6.60800e+03 6.33600e+03
209 6.60800e+03 7.50200e+03
210 6.60800e+03 9.06400e+03
211 6.60800e+03 1.01420e+04
212 6.60800e+03 1.10220e+04
213 1.72000e+04 5.87400e+03
214 1.72000e+04 7.34800e+03
215 1.72000e+04 9.28400e+03
216 1.72000e+04 9.92200e+03
217 1.72000e+04 1.11980e+04
218 1.72960e+04 5.19200e+03
219 1.74400e+04 5.19200e+03
220 1.75680e+04 5.19200e+03
221 1.76160e+04 5.72000e+02
222 1.76160e+04 2.99200e+03
223 7.24800e+03 1.03620e+04
224 7.24800e+03 1.12860e+04
225 7.37600e+03 3.08000e+02
226 7.37600e+03 9.68000e+02
227 7.37600e+03 2.06800e+03
228 7.37600e+03 2.50800e+03
229 7.37600e+03 3.08000e+03
230 7.37600e+03 3.60800e+03
231 7.37600e+03 4.48800e+03
232 7.37600e+03 5.58800e+03
233 7.37600e+03 6.55600e+03
234 7.37600e+03 7.74400e+03
235 1.80800e+03 6.44600e+03
236 1.84000e+03 7.43600e+03
237 1.84000e+03 8.40400e+03
238 1.84000e+03 9.04200e+03
239 1.84000e+03 1.09120e+04
240 1.84000e+03 1.14400e+04
241 1.22720e+04 9.87800e+03
242 1.24640e+04 9.06400e+03
243 1.25920e+04 9.06400e+03
244 1.27360e+04 9.06400e+03
245 1.28480e+04 9.02000e+02
246 1.28480e+04 1.98000e+03
247 1.28480e+04 2.64000e+03
248 1.28480e+04 3.16800e+03
249 1.28480e+04 3.60800e+03
250 1.28480e+04 4.15800e+03
251 1.28480e+04 5.36800e+03
252 1.28480e+04 6.55600e+03
253 1.28480e+04 6.99600e+03
254 1.28480e+04 8.00800e+03
255 1.28480e+04 8.84400e+03
256 1.64800e+03 8.40400e+03
257 1.64800e+03 9.15200e+03
258 1.64800e+03 1.09120e+04
259 1.64800e+03 1.14400e+04
260 1.68000e+03 6.44600e+03
261 1.68000e+03 7.59000e+03
262 6.25600e+03 9.65800e+03
263 6.25600e+03 1.10220e+04
264 1.69760e+04 8.51400e+03
265 1.69760e+04 9.28400e+03
266 1.69760e+04 9.92200e+03
267 1.69760e+04 1.11980e+04
268 1.70720e+04 5.72000e+03
269 1.71360e+04 5.72000e+03
270 1.74400e+04 5.72000e+03
271 1.76000e+04 5.72000e+03
272 1.16000e+04 5.72000e+02
273 1.16000e+04 1.76000e+03
274 1.16000e+04 3.38800e+03
275 1.16000e+04 5.25800e+03
276 1.16000e+04 6.55600e+03
277 1.16000e+04 6.99600e+03
278 1.16000e+04 7.89800e+03
279 1.16320e+04 8.60200e+03
280 1.16320e+04 9.28400e+03
281 1.16320e+04 1.02080e+04
282 1.73760e+04 1.01420e+04
283 1.77280e+04 1.01420e+04
284 1.84160e+04 1.01420e+04
285 1.86080e+04 1.01420e+04
286 1.87040e+04 1.01420e+04
287 1.88640e+04 1.01420e+04
288 1.89920e+04 1.01420e+04
289 1.90880e+04 1.01420e+04
290 6.22400e+03 9.68000e+02
291 6.22400e+03 3.08000e+03
292 6.22400e+03 3.60800e+03
293 6.22400e+03 4.66400e+03
294 6.40000e+03 1.09120e+04
295 6.76800e+03 1.09120e+04
296 6.86400e+03 1.12860e+04
297 1.93600e+03 6.33600e+03
298 1.93600e+03 7.43600e+03
299 1.96800e+03 8.40400e+03
300 1.96800e+03 9.15200e+03
301 1.96800e+03 1.09120e+04
302 1.96800e+03 1.14400e+04
303 3.98400e+03 8.71200e+03
304 4.30400e+03 8.93200e+03
305 4.41600e+03 8.93200e+03
306 4.49600e+03 1.08020e+04
307 1.54400e+04 1.23200e+03
308 1.54400e+04 3.60800e+03
309 1.54400e+04 4.18000e+03
310 1.54400e+04 4.81800e+03
311 1.55360e+04 5.80800e+03
312 1.56480e+04 5.80800e+03
313 1.57600e+04 5.80800e+03
314 1.58400e+04 5.80800e+03
315 1.59360e+04 5.80800e+03
316 1.60480e+04 5.80800e+03
317 1.62080e+04 5.80800e+03
318 5.58400e+03 1.02520e+04
319 5.72800e+03 1.02520e+04
320 6.00000e+03 1.02520e+04
321 6.06400e+03 1.02520e+04
322 6.16000e+03 1.02520e+04
323 6.32000e+03 9.68000e+02
324 6.32000e+03 3.08000e+03
325 6.32000e+03 3.60800e+03
326 6.32000e+03 4.66400e+03
327 6.38400e+03 9.54800e+03
328 6.38400e+03 1.04720e+04
329 1.67200e+04 1.11980e+04
330 1.70880e+04 1.11980e+04
331 1.73760e+04 1.11980e+04
332 1.77280e+04 1.11980e+04
333 1.84160e+04 1.11980e+04
334 1.86080e+04 1.11980e+04
335 1.87040e+04 1.11980e+04
336 1.88480e+04 1.11980e+04
337 1.52800e+04 5.72000e+02
338 1.52800e+04 1.23200e+03
339 1.52800e+04 3.60800e+03
340 1.52800e+04 4.18000e+03
341 1.52800e+04 4.81800e+03
342 1.52800e+04 6.13800e+03
343 1.52800e+04 7.34800e+03
344 1.52800e+04 8.22800e+03
345 1.52800e+04 9.06400e+03
346 1.52800e+04 9.50400e+03
347 1.52800e+04 1.02520e+04
348 1.52800e+04 1.10000e+04
349 3.47200e+03 7.92000e+03
350 3.47200e+03 8.71200e+03
351 3.47200e+03 9.37200e+03
352 3.47200e+03 1.04720e+04
353 3.47200e+03 1.09120e+04
354 3.47200e+03 1.14400e+04
355 2.08000e+02 1.14400e+04
356 4.32000e+02 7.96400e+03
357 9.44000e+02 7.96400e+03
358 1.10400e+03 7.37000e+03
359 1.42400e+03 6.44600e+03
360 1.42400e+03 7.37000e+03
361 1.42400e+03 8.29400e+03
362 1.00960e+04 4.37800e+03
363 1.00960e+04 5.47800e+03
364 1.00960e+04 6.55600e+03
365 1.00960e+04 7.48000e+03
366 1.00960e+04 8.00800e+03
367 1.00960e+04 8.60200e+03
368 1.00960e+04 9.28400e+03
369 1.00960e+04 1.03180e+04
370 1.00960e+04 1.14400e+04
371 1.02560e+04 3.60800e+03
372 1.03360e+04 3.60800e+03
373 1.04480e+04 3.60800e+03
374 1.05440e+04 3.60800e+03
375 1.06080e+04 3.60800e+03
376 1.06720e+04 3.60800e+03
377 1.07520e+04 3.60800e+03
378 1.08640e+04 3.60800e+03
379 1.09920e+04 3.60800e+03
380 1.10880e+04 3.60800e+03
381 1.11680e+04 3.60800e+03
382 1.12800e+04 3.60800e+03
383 1.14080e+04 3.60800e+03
384 6.88000e+02 7.37000e+03
385 6.88000e+02 1.14400e+04
386 6.16000e+03 9.68000e+02
387 6.49600e+03 9.68000e+02
388 6.59200e+03 9.68000e+02
389 6.73600e+03 9.68000e+02
390 6.84800e+03 9.68000e+02
391 6.94400e+03 9.68000e+02
392 7.10400e+03 9.68000e+02
393 7.23200e+03 9.68000e+02
394 7.55200e+03 9.68000e+02
395 7.60000e+03 3.08000e+02
396 7.60000e+03 2.06800e+03
397 7.60000e+03 2.50800e+03
398 7.60000e+03 3.08000e+03
399 7.60000e+03 3.60800e+03
400 7.60000e+03 4.04800e+03
401 7.60000e+03 4.48800e+03
402 7.63200e+03 5.14800e+03
403 7.79200e+03 5.14800e+03
404 7.85600e+03 5.14800e+03
405 7.92000e+03 5.14800e+03
406 8.11200e+03 5.14800e+03
407 8.38400e+03 5.14800e+03
408 8.46400e+03 5.14800e+03
409 8.62400e+03 5.14800e+03
410 8.80000e+03 5.14800e+03
411 8.91200e+03 5.14800e+03
412 9.21600e+03 5.14800e+03
413 9.50400e+03 5.14800e+03
414 9.61600e+03 5.14800e+03
415 9.74400e+03 5.14800e+03
416 9.88800e+03 5.14800e+03
417 9.93600e+03 6.55600e+03
418 9.93600e+03 7.48000e+03
419 9.93600e+03 8.38200e+03
420 9.93600e+03 9.28400e+03
421 9.93600e+03 1.14400e+04
422 1.00320e+04 5.72000e+02
423 1.00320e+04 1.45200e+03
424 1.00320e+04 2.72800e+03
425 6.49600e+03 7.08400e+03
426 6.73600e+03 7.08400e+03
427 6.76800e+03 9.06400e+03
428 6.76800e+03 1.01420e+04
429 9.93600e+03 5.72000e+02
430 9.93600e+03 1.45200e+03
431 5.20000e+03 1.00320e+04
432 7.40800e+03 1.03620e+04
433 7.56800e+03 1.06920e+04
434 7.85600e+03 1.06920e+04
435 7.93600e+03 1.06920e+04
436 8.03200e+03 1.06920e+04
437 8.14400e+03 1.06920e+04
438 8.22400e+03 1.06920e+04
439 8.32000e+03 1.06920e+04
440 8.78400e+03 1.06920e+04
441 8.97600e+03 1.06920e+04
442 9.40800e+03 1.06920e+04
443 1.02880e+04 1.06920e+04
444 1.04000e+04 1.06920e+04
445 1.05600e+04 1.06920e+04
446 1.07040e+04 1.06920e+04
447 1.08640e+04 1.06920e+04
448 1.09600e+04 1.06920e+04
449 1.11360e+04 1.06920e+04
450 1.12640e+04 1.06920e+04
451 1.13920e+04 1.06920e+04
452 1.14720e+04 1.06920e+04
453 1.15680e+04 1.06920e+04
454 4.88000e+03 9.21800e+03
455 4.88000e+03 1.00320e+04
456 4.88000e+03 1.05820e+04
457 4.88000e+03 1.11320e+04
458 4.94400e+03 3.60800e+03
459 4.94400e+03 4.66400e+03
460 4.94400e+03 5.36800e+03
461 4.94400e+03 5.91800e+03
462 4.94400e+03 6.77600e+03
463 4.94400e+03 7.43600e+03
464 6.94400e+03 3.08000e+02
465 7.10400e+03 3.08000e+02
466 7.23200e+03 3.08000e+02
467 7.79200e+03 3.08000e+02
468 7.85600e+03 3.08000e+02
469 7.92000e+03 3.08000e+02
470 8.12800e+03 3.08000e+02
471 8.38400e+03 3.08000e+02
472 8.46400e+03 3.08000e+02
473 8.52800e+03 3.08000e+02
474 8.59200e+03 3.08000e+02
475 8.68800e+03 3.08000e+02
476 8.80000e+03 3.08000e+02
477 8.91200e+03 3.08000e+02
478 9.00800e+03 3.08000e+02
479 9.10400e+03 3.08000e+02
480 9.20000e+03 3.08000e+02
481 9.23200e+03 1.45200e+03
482 9.23200e+03 2.28800e+03
483 9.23200e+03 3.38800e+03
484 9.34400e+03 7.26000e+03
485 9.45600e+03 8.60200e+03
486 9.45600e+03 1.14400e+04
487 3.56800e+03 7.92000e+03
488 3.66400e+03 7.92000e+03
489 3.72800e+03 7.92000e+03
490 8.24000e+03 9.54800e+03
491 8.24000e+03 1.14400e+04
492 9.37600e+03 6.77600e+03
493 9.77600e+03 5.72000e+02
494 9.77600e+03 1.45200e+03
495 9.77600e+03 2.50800e+03
496 9.77600e+03 3.38800e+03
497 6.99200e+03 7.85400e+03
498 6.99200e+03 9.17400e+03
499 6.99200e+03 9.81200e+03
500 6.99200e+03 1.03620e+04
501 7.05600e+03 2.06800e+03
502 7.05600e+03 3.08000e+03
503 7.05600e+03 3.60800e+03
504 7.05600e+03 4.66400e+03
505 7.05600e+03 5.58800e+03
506 7.05600e+03 6.55600e+03
507 1.45120e+04 6.82000e+02
508 1.46400e+04 3.60800e+03
509 1.46400e+04 4.04800e+03
510 1.46400e+04 4.59800e+03
511 1.46400e+04 6.13800e+03
512 1.46400e+04 7.56800e+03
513 1.46400e+04 8.22800e+03
514 1.46400e+04 9.06400e+03
515 1.46400e+04 9.50400e+03
516 1.46400e+04 1.02520e+04
517 1.46400e+04 1.10000e+04
518 1.47680e+04 1.01200e+03
519 1.48480e+04 1.01200e+03
520 1.49600e+04 1.01200e+03
521 1.53760e+04 1.01200e+03
522 1.55360e+04 1.01200e+03
523 1.56640e+04 1.01200e+03
524 1.57600e+04 1.01200e+03
525 1.58400e+04 1.01200e+03
526 1.59360e+04 1.01200e+03
527 1.60480e+04 1.01200e+03
528 1.62080e+04 1.01200e+03
529 1.64640e+04 1.01200e+03
530 1.65280e+04 5.72000e+02
531 1.47360e+04 6.13800e+03
532 1.47360e+04 7.56800e+03
533 1.47360e+04 8.22800e+03
534 1.47360e+04 9.06400e+03
535 1.47360e+04 9.50400e+03
536 1.47360e+04 1.02520e+04
537 1.47360e+04 1.08900e+04
538 1.47680e+04 4.92800e+03
539 1.48800e+04 4.92800e+03
540 1.49760e+04 4.92800e+03
541 1.53760e+04 4.92800e+03
542 1.55360e+04 4.92800e+03
543 1.56480e+04 4.92800e+03
544 1.57600e+04 4.92800e+03
545 1.58400e+04 4.92800e+03
546 1.59360e+04 4.92800e+03
547 1.60480e+04 4.92800e+03
548 1.62080e+04 4.92800e+03
549 1.64640e+04 4.92800e+03
550 1.67040e+04 4.92800e+03
551 1.38080e+04 6.02800e+03
552 1.38080e+04 6.77600e+03
553 1.38080e+04 7.78800e+03
554 1.38080e+04 8.22800e+03
555 1.38080e+04 9.50400e+03
556 1.38080e+04 1.03620e+04
557 1.38080e+04 1.11100e+04
558 1.40320e+04 4.70800e+03
559 1.41440e+04 4.70800e+03
560 1.43200e+04 4.70800e+03
561 1.44640e+04 4.70800e+03
562 1.69440e+04 4.70800e+03
563 3.66400e+03 8.71200e+03
564 3.72800e+03 9.28400e+03
565 3.76000e+03 9.70200e+03
566 3.76000e+03 1.04720e+04
567 3.76000e+03 1.09120e+04
568 3.76000e+03 1.14400e+04
569 3.60000e+03 8.71200e+03
570 3.60000e+03 9.48200e+03
571 4.04800e+03 9.81200e+03
572 4.33600e+03 9.81200e+03
573 4.57600e+03 9.81200e+03
574 4.65600e+03 9.81200e+03
575 4.97600e+03 8.84400e+03
576 8.97600e+03 8.11800e+03
577 8.97600e+03 9.39400e+03
578 8.97600e+03 1.14400e+04
579 1.01760e+04 6.55600e+03
580 1.03040e+04 6.55600e+03
581 1.04480e+04 6.55600e+03
582 1.05760e+04 6.55600e+03
583 1.07360e+04 6.55600e+03
584 1.08320e+04 6.55600e+03
585 1.08960e+04 6.55600e+03
586 1.09760e+04 6.55600e+03
587 1.10880e+04 6.55600e+03
588 1.11680e+04 6.55600e+03
589 1.12640e+04 6.55600e+03
590 1.14240e+04 6.55600e+03
591 1.15360e+04 6.55600e+03
592 1.16640e+04 6.55600e+03
593 1.17280e+04 6.55600e+03
594 1.17920e+04 6.55600e+03
595 1.18720e+04 6.55600e+03
596 1.19680e+04 6.55600e+03
597 1.21120e+04 6.55600e+03
598 1.22720e+04 6.55600e+03
599 1.24480e+04 6.55600e+03
600 1.26080e+04 6.55600e+03
601 1.27360e+04 6.55600e+03
602 1.30080e+04 6.55600e+03
603 1.30720e+04 1.01200e+03
604 1.30720e+04 1.98000e+03
605 1.30720e+04 2.64000e+03
606 1.30720e+04 3.60800e+03
607 1.30720e+04 4.26800e+03
608 1.30720e+04 5.36800e+03
609 1.31680e+04 5.72000e+02
610 1.32640e+04 5.72000e+02
611 1.34080e+04 5.72000e+02
612 1.35680e+04 5.72000e+02
613 1.36960e+04 5.72000e+02
614 1.40160e+04 5.72000e+02
615 1.41600e+04 5.72000e+02
616 1.43200e+04 5.72000e+02
617 1.51200e+04 5.72000e+02
618 1.53760e+04 5.72000e+02
619 1.04800e+04 5.72000e+02
620 1.04800e+04 1.45200e+03
621 1.04800e+04 6.00600e+03
622 7.12000e+03 2.50800e+03
623 7.12000e+03 3.08000e+03
624 7.12000e+03 3.60800e+03
625 7.12000e+03 4.66400e+03
626 7.12000e+03 5.58800e+03
627 7.12000e+03 6.55600e+03
628 7.12000e+03 7.74400e+03
629 7.12000e+03 9.06400e+03
630 7.12000e+03 9.81200e+03
631 7.12000e+03 1.03620e+04
632 7.12000e+03 1.12860e+04
633 3.72800e+03 8.71200e+03
634 4.01600e+03 1.04720e+04
635 4.01600e+03 1.09120e+04
636 4.01600e+03 1.14400e+04
637 6.48000e+03 9.06400e+03
638 6.89600e+03 9.06400e+03
639 7.24800e+03 2.06800e+03
640 7.24800e+03 2.50800e+03
641 7.24800e+03 3.08000e+03
642 7.24800e+03 3.60800e+03
643 7.24800e+03 4.66400e+03
644 7.24800e+03 5.58800e+03
645 7.24800e+03 6.55600e+03
646 7.24800e+03 7.48000e+03
647 3.92000e+03 8.71200e+03
648 5.05600e+03 9.37200e+03
649 3.53600e+03 9.37200e+03
650 3.53600e+03 1.04720e+04
651 3.53600e+03 1.09120e+04
652 3.53600e+03 1.14400e+04
653 8.78400e+03 8.44800e+03
654 1.03040e+04 8.44800e+03
655 1.05600e+04 8.44800e+03
656 1.07040e+04 8.44800e+03
657 1.07680e+04 8.44800e+03
658 1.08480e+04 8.44800e+03
659 1.09760e+04 8.44800e+03
660 1.11200e+04 8.44800e+03
661 1.12640e+04 8.44800e+03
662 1.15520e+04 8.44800e+03
663 1.17600e+04 8.44800e+03
664 1.18880e+04 8.44800e+03
665 1.20800e+04 8.44800e+03
666 1.22400e+04 8.44800e+03
667 1.27200e+04 5.72000e+02
668 1.27200e+04 1.98000e+03
669 1.27200e+04 3.71800e+03
670 1.27200e+04 5.36800e+03
671 1.27200e+04 6.99600e+03
672 2.80000e+03 7.32600e+03
673 2.92800e+03 7.70000e+03
674 2.99200e+03 7.70000e+03
675 3.10400e+03 7.70000e+03
676 3.26400e+03 7.70000e+03
677 4.20800e+03 7.70000e+03
678 8.11200e+03 2.06800e+03
679 8.11200e+03 2.50800e+03
680 8.11200e+03 3.08000e+03
681 8.11200e+03 3.60800e+03
682 8.11200e+03 4.26800e+03
683 8.11200e+03 7.48000e+03
684 9.58400e+03 2.72800e+03
685 9.58400e+03 3.38800e+03
686 9.84000e+03 2.28800e+03
687 1.14400e+04 2.28800e+03
688 1.17280e+04 2.28800e+03
689 1.18240e+04 2.28800e+03
690 1.19840e+04 2.28800e+03
691 1.21120e+04 2.28800e+03
692 1.22560e+04 2.28800e+03
693 1.23840e+04 2.28800e+03
694 1.24640e+04 2.28800e+03
695 1.24960e+04 5.72000e+02
696 1.24960e+04 1.23200e+03
697 1.26080e+04 1.01200e+03
698 5.58400e+03 7.92000e+03
699 5.68000e+03 7.92000e+03
700 5.76000e+03 7.92000e+03
701 6.89600e+03 7.92000e+03
702 7.56800e+03 7.92000e+03
703 8.14400e+03 7.92000e+03
704 8.20800e+03 7.92000e+03
705 9.13600e+03 7.59000e+03
706 1.05440e+04 6.11600e+03
707 1.10880e+04 6.11600e+03
708 1.11680e+04 6.11600e+03
709 1.12640e+04 6.11600e+03
710 1.13120e+04 5.72000e+02
711 1.13120e+04 1.49600e+03
712 1.13120e+04 5.25800e+03
713 1.07680e+04 5.72000e+02
714 1.07680e+04 1.34200e+03
715 1.07680e+04 4.48800e+03
716 1.07680e+04 5.03800e+03
717 1.07680e+04 5.58800e+03
718 1.07680e+04 6.99600e+03
719 1.07680e+04 9.28400e+03
720 1.07680e+04 9.87800e+03
721 5.58400e+03 8.84400e+03
722 5.61600e+03 3.08000e+03
723 6.16000e+03 3.08000e+03
724 6.49600e+03 3.08000e+03
725 6.60800e+03 3.08000e+03
726 6.73600e+03 3.08000e+03
727 6.84800e+03 3.08000e+03
728 6.94400e+03 3.08000e+03
729 7.79200e+03 3.08000e+03
730 7.85600e+03 3.08000e+03
731 7.92000e+03 3.08000e+03
732 8.38400e+03 3.08000e+03
733 8.46400e+03 3.08000e+03
734 8.56000e+03 3.08000e+03
735 8.68800e+03 3.08000e+03
736 8.80000e+03 3.08000e+03
737 8.91200e+03 3.08000e+03
738 9.00800e+03 3.08000e+03
739 8.68800e+03 2.28800e+03
740 8.46400e+03 6.11600e+03
741 8.52800e+03 2.06800e+03
742 8.52800e+03 2.50800e+03
743 8.52800e+03 3.60800e+03
744 8.46400e+03 2.06800e+03
745 8.46400e+03 2.50800e+03
746 8.46400e+03 3.60800e+03
747 1.74560e+04 5.72000e+02
748 1.74560e+04 2.99200e+03
749 1.74560e+04 7.23800e+03
750 1.17280e+04 2.94800e+03
751 1.18240e+04 2.94800e+03
752 1.19840e+04 2.94800e+03
753 1.21120e+04 2.94800e+03
754 1.22560e+04 2.94800e+03
755 1.23840e+04 2.94800e+03
756 1.24640e+04 2.94800e+03
757 1.25600e+04 5.72000e+02
758 1.25600e+04 1.98000e+03
759 1.25600e+04 2.72800e+03
760 1.75520e+04 7.23800e+03
761 1.76320e+04 8.18400e+03
762 1.77760e+04 8.18400e+03
763 1.80800e+04 8.18400e+03
764 1.82560e+04 9.06400e+03
765 1.04480e+04 1.00320e+04
766 1.05600e+04 1.00320e+04
767 1.07040e+04 1.00320e+04
768 1.08640e+04 1.00320e+04
769 1.09760e+04 1.00320e+04
770 1.11360e+04 1.00320e+04
771 1.17600e+04 1.00320e+04
772 1.18880e+04 1.00320e+04
773 1.20320e+04 1.00320e+04
774 1.21440e+04 1.00320e+04
775 1.28800e+04 1.00320e+04
776 1.30080e+04 1.00320e+04
777 1.31680e+04 1.00320e+04
778 1.33120e+04 1.00320e+04
779 1.34720e+04 1.00320e+04
780 1.35840e+04 1.00320e+04
781 1.36800e+04 3.60800e+03
782 1.36800e+04 4.26800e+03
783 1.36800e+04 6.02800e+03
784 1.36800e+04 6.77600e+03
785 1.36800e+04 8.00800e+03
786 1.36800e+04 9.50400e+03
787 1.77600e+04 6.90800e+03
788 1.80480e+04 6.90800e+03
789 1.81280e+04 7.34800e+03
790 1.26400e+04 3.38800e+03
791 1.27840e+04 2.64000e+03
792 1.27840e+04 3.16800e+03
793 1.09760e+04 8.00800e+03
794 1.10880e+04 8.00800e+03
795 1.12640e+04 8.00800e+03
796 1.16640e+04 8.00800e+03
797 1.17280e+04 8.00800e+03
798 1.17920e+04 8.00800e+03
799 1.18880e+04 8.00800e+03
800 1.29120e+04 8.00800e+03
801 1.30080e+04 8.00800e+03
802 1.31840e+04 8.00800e+03
803 1.33280e+04 8.00800e+03
804 1.34560e+04 8.00800e+03
805 1.35680e+04 8.00800e+03
806 8.40000e+03 2.06800e+03
807 8.40000e+03 2.50800e+03
808 8.40000e+03 3.60800e+03
809 9.32800e+03 1.45200e+03
810 9.52000e+03 1.45200e+03
811 9.63200e+03 1.45200e+03
812 9.84000e+03 1.45200e+03
813 1.01600e+04 1.45200e+03
814 1.02560e+04 1.45200e+03
815 1.03360e+04 1.45200e+03
816 1.05440e+04 1.45200e+03
817 1.06080e+04 1.45200e+03
818 1.06720e+04 1.45200e+03
819 1.08640e+04 1.45200e+03
820 1.09920e+04 1.45200e+03
821 1.10880e+04 1.45200e+03
822 1.11680e+04 1.45200e+03
823 1.23040e+04 5.72000e+02
824 1.48640e+04 3.60800e+03
825 1.48640e+04 4.04800e+03
826 1.48640e+04 6.13800e+03
827 1.48640e+04 7.56800e+03
828 1.48640e+04 8.22800e+03
829 1.48640e+04 9.06400e+03
830 1.48640e+04 9.50400e+03
831 1.48640e+04 1.02520e+04
832 1.48640e+04 1.08900e+04
833 7.79200e+03 2.06800e+03
834 7.79200e+03 2.50800e+03
835 7.79200e+03 3.60800e+03
836 7.79200e+03 4.04800e+03
837 7.79200e+03 4.48800e+03
838 7.79200e+03 6.44600e+03
839 1.53760e+04 3.60800e+03
840 1.53760e+04 4.18000e+03
841 1.53760e+04 6.13800e+03
842 1.53760e+04 7.34800e+03
843 6.86400e+03 2.06800e+03
844 6.86400e+03 3.60800e+03
845 6.86400e+03 4.77400e+03
846 6.92800e+03 5.36800e+03
847 1.05440e+04 5.36800e+03
848 1.06720e+04 5.36800e+03
849 1.07040e+04 9.28400e+03
850 1.24640e+04 1.10000e+04
851 1.25920e+04 1.10000e+04
852 1.27360e+04 1.10000e+04
853 1.28800e+04 1.10000e+04
854 1.30080e+04 1.10000e+04
855 1.31680e+04 1.10000e+04
856 1.33120e+04 1.10000e+04
857 1.34560e+04 1.10000e+04
858 1.35840e+04 1.10000e+04
859 1.41440e+04 1.10000e+04
860 1.42240e+04 1.10000e+04
861 1.43360e+04 1.10000e+04
862 1.44160e+04 1.10000e+04
863 1.49920e+04 1.10000e+04
864 1.54400e+04 1.10000e+04
865 1.56320e+04 1.10000e+04
866 1.57600e+04 1.10000e+04
867 1.58240e+04 1.10000e+04
868 1.61600e+04 1.10000e+04
869 1.64640e+04 1.10000e+04
870 1.59520e+04 5.72000e+02
871 1.59520e+04 1.45200e+03
872 1.60480e+04 2.99200e+03
873 1.62080e+04 2.99200e+03
874 1.64640e+04 2.99200e+03
875 1.67040e+04 2.99200e+03
876 1.70720e+04 2.99200e+03
877 1.71360e+04 2.99200e+03
878 1.72960e+04 2.99200e+03
879 1.56640e+04 5.72000e+02
880 1.56640e+04 3.60800e+03
881 1.56640e+04 4.18000e+03
882 1.56640e+04 7.34800e+03
883 1.56640e+04 7.78800e+03
884 1.56640e+04 9.06400e+03
885 1.56640e+04 9.50400e+03
886 1.56640e+04 1.02520e+04
887 1.64320e+04 1.45200e+03
888 8.14400e+03 9.54800e+03
889 8.14400e+03 1.14400e+04
890 9.61600e+03 5.72000e+02
891 1.21120e+04 5.72000e+02
892 1.21120e+04 3.93800e+03
893 1.21120e+04 5.25800e+03
894 8.30400e+03 9.54800e+03
895 8.30400e+03 1.14400e+04
896 1.29120e+04 8.84400e+03
897 1.30080e+04 8.84400e+03
898 1.31840e+04 8.84400e+03
899 1.33280e+04 8.84400e+03
900 1.34560e+04 8.84400e+03
901 1.35520e+04 3.60800e+03
902 1.35520e+04 4.37800e+03
903 1.35520e+04 5.36800e+03
904 1.35520e+04 6.02800e+03
905 1.35520e+04 6.77600e+03
906 1.19200e+04 6.99600e+03
907 1.19200e+04 9.28400e+03
908 1.19520e+04 5.72000e+02
909 1.19520e+04 3.93800e+03
910 1.19520e+04 5.25800e+03
911 1.03200e+04 5.72000e+02
912 1.04480e+04 1.14400e+04
913 1.18240e+04 5.72000e+02
914 1.18240e+04 3.93800e+03
915 1.18240e+04 5.25800e+03
916 1.26560e+04 5.36800e+03
917 5.00800e+03 1.06920e+04
918 5.00800e+03 1.11320e+04
919 1.31680e+04 1.98000e+03
920 1.31680e+04 2.64000e+03
921 1.31680e+04 3.60800e+03
922 1.31680e+04 4.37800e+03
923 1.31680e+04 5.47800e+03
924 1.32320e+04 6.02800e+03
925 1.33760e+04 6.02800e+03
926 1.34880e+04 6.02800e+03
927 1.40320e+04 6.02800e+03
928 1.41440e+04 6.02800e+03
929 1.42240e+04 6.02800e+03
930 1.43200e+04 6.02800e+03
931 1.44640e+04 6.02800e+03
932 1.49760e+04 6.02800e+03
933 1.67040e+04 6.02800e+03
934 3.28000e+03 1.09120e+04
935 3.28000e+03 1.14400e+04
936 6.73600e+03 3.08000e+02
937 6.73600e+03 2.06800e+03
938 6.73600e+03 3.60800e+03
939 6.73600e+03 4.77400e+03
940 6.73600e+03 5.69800e+03
941 6.73600e+03 6.33600e+03
942 8.78400e+03 1.14400e+04
943 1.02880e+04 1.14400e+04
944 1.05120e+04 1.14400e+04
945 1.17920e+04 6.99600e+03
946 8.72000e+03 4.15800e+03
947 6.80000e+03 5.80800e+03
948 6.80000e+03 6.33600e+03
949 6.91200e+03 6.55600e+03
950 7.85600e+03 6.55600e+03
951 8.89600e+03 6.55600e+03
952 8.94400e+03 2.28800e+03
953 8.94400e+03 3.60800e+03
954 7.56800e+03 9.50400e+03
955 7.85600e+03 9.50400e+03
956 8.78400e+03 9.50400e+03
957 1.41440e+04 8.22800e+03
958 1.42240e+04 8.22800e+03
959 1.43360e+04 8.22800e+03
960 1.44160e+04 8.22800e+03
961 1.44800e+04 8.22800e+03
962 1.54400e+04 8.22800e+03
963 1.55040e+04 8.22800e+03
964 1.55360e+04 3.60800e+03
965 1.55360e+04 4.18000e+03
966 1.55360e+04 7.34800e+03
967 1.55680e+04 5.72000e+02
968 1.57600e+04 5.72000e+02
969 1.58400e+04 5.72000e+02
970 1.60480e+04 5.72000e+02
971 1.62080e+04 5.72000e+02
972 1.67040e+04 5.72000e+02
973 1.71040e+04 5.72000e+02
974 1.72960e+04 5.72000e+02
975 1.80000e+04 5.72000e+02
976 1.80800e+04 5.72000e+02
977 1.17280e+04 5.72000e+02
978 1.17280e+04 3.93800e+03
979 1.17280e+04 5.25800e+03
980 1.17280e+04 6.99600e+03
981 1.17600e+04 9.28400e+03
982 1.22720e+04 3.93800e+03
983 1.22720e+04 5.25800e+03
984 1.05120e+04 9.28400e+03
985 7.85600e+03 4.04800e+03
986 7.92000e+03 4.04800e+03
987 8.78400e+03 2.28800e+03
988 8.78400e+03 3.60800e+03
989 8.78400e+03 4.26800e+03
990 7.92000e+03 2.06800e+03
991 7.92000e+03 2.50800e+03
992 7.92000e+03 3.60800e+03
993 7.92000e+03 4.48800e+03
994 8.88000e+03 4.26800e+03
995 1.05440e+04 5.72000e+02
996 1.05440e+04 6.99600e+03
997 1.06080e+04 4.48800e+03
998 9.00800e+03 2.28800e+03
999 9.31200e+03 2.28800e+03
1000 1.14400e+04 5.72000e+02
1001 1.14400e+04 5.25800e+03
1002 1.14400e+04 6.99600e+03
1003 1.15360e+04 6.99600e+03
1004 1.58240e+04 7.34800e+03
1005 1.58240e+04 7.78800e+03
1006 1.58240e+04 9.06400e+03
1007 1.58240e+04 9.50400e+03
1008 1.58240e+04 1.02520e+04
1009 6.60800e+03 2.06800e+03
1010 6.60800e+03 3.60800e+03
1011 6.60800e+03 4.66400e+03
1012 6.89600e+03 5.80800e+03
1013 1.12000e+02 1.11980e+04
1014 1.06720e+04 4.48800e+03
1015 1.08320e+04 4.48800e+03
1016 1.08640e+04 5.72000e+02
1017 1.08640e+04 5.03800e+03
1018 1.10880e+04 6.99600e+03
1019 9.52000e+03 5.72000e+02
1020 9.52000e+03 2.06800e+03
1021 1.22400e+04 6.99600e+03
1022 3.28000e+03 8.71200e+03
1023 3.28000e+03 9.15200e+03
1024 3.63200e+03 1.04720e+04
1025 3.63200e+03 1.09120e+04
1026 3.63200e+03 1.14400e+04
1027 1.15680e+04 9.28400e+03
1028 1.41280e+04 1.04720e+04
1029 1.41600e+04 1.34200e+03
1030 1.41600e+04 3.60800e+03
1031 1.41600e+04 4.04800e+03
1032 1.41600e+04 6.77600e+03
1033 1.41600e+04 7.67800e+03
1034 1.41600e+04 9.50400e+03
1035 4.08000e+03 1.04720e+04
1036 4.33600e+03 1.04720e+04
1037 4.57600e+03 1.04720e+04
1038 4.97600e+03 1.00320e+04
1039 5.28000e+02 7.37000e+03
1040 1.60160e+04 1.45200e+03
1041 1.60160e+04 7.34800e+03
1042 1.60160e+04 9.06400e+03
1043 1.60160e+04 9.50400e+03
1044 1.61600e+04 9.92200e+03
1045 1.64640e+04 9.92200e+03
1046 1.66400e+04 9.92200e+03
1047 1.67200e+04 9.92200e+03
1048 1.70880e+04 9.92200e+03
1049 1.74400e+03 1.09120e+04
1050 2.11200e+03 1.09120e+04
1051 2.36800e+03 1.09120e+04
1052 2.54400e+03 1.09120e+04
1053 2.94400e+03 1.09120e+04
1054 3.05600e+03 8.71200e+03
1055 3.05600e+03 9.15200e+03
1056 3.08800e+03 1.09120e+04
1057 4.08000e+03 1.09120e+04
1058 4.33600e+03 1.09120e+04
1059 4.43200e+03 1.09120e+04
1060 1.34560e+04 9.50400e+03
1061 1.42240e+04 7.78800e+03
1062 1.43360e+04 7.78800e+03
1063 1.44160e+04 7.78800e+03
1064 1.44480e+04 1.34200e+03
1065 1.44480e+04 3.60800e+03
1066 1.44480e+04 4.04800e+03
1067 1.28000e+03 8.40400e+03
1068 1.74400e+03 8.40400e+03
1069 1.90400e+03 8.40400e+03
1070 2.16000e+03 8.40400e+03
1071 2.22400e+03 8.40400e+03
1072 2.36800e+03 8.40400e+03
1073 2.54400e+03 8.40400e+03
1074 2.70400e+03 7.54600e+03
1075 1.40320e+04 1.34200e+03
1076 1.40320e+04 3.60800e+03
1077 1.40320e+04 6.77600e+03
1078 1.49760e+04 7.56800e+03
1079 1.43200e+04 4.04800e+03
1080 1.47680e+04 4.04800e+03
1081 1.33920e+04 1.98000e+03
1082 1.33920e+04 3.60800e+03
1083 1.33920e+04 4.37800e+03
1084 1.33920e+04 5.36800e+03
1085 1.66880e+04 1.45200e+03
1086 1.33600e+04 6.77600e+03
1087 1.62080e+04 1.45200e+03
1088 1.62080e+04 7.34800e+03
1089 1.50400e+03 6.33600e+03
1090 2.06400e+03 6.33600e+03
1091 2.16000e+03 6.33600e+03
1092 2.22400e+03 6.33600e+03
1093 2.38400e+03 6.33600e+03
1094 2.54400e+03 6.33600e+03
1095 4.56000e+03 7.37000e+03
1096 4.30400e+03 7.26000e+03
1097 4.38400e+03 7.26000e+03
1098 4.46400e+03 7.26000e+03
1099 4.81600e+03 7.26000e+03
1100 4.88000e+03 7.26000e+03
1101 1.43520e+04 1.34200e+03
1102 1.43520e+04 3.60800e+03
1103 1.43520e+04 9.50400e+03
1104 1.43520e+04 1.02520e+04
1105 5.74400e+03 8.84400e+03
1106 4.33600e+03 1.14400e+04
1107 6.16000e+03 3.60800e+03
1108 6.16000e+03 4.66400e+03
1109 6.16000e+03 1.11320e+04
1110 6.51200e+03 3.60800e+03
1111 6.51200e+03 4.66400e+03
1112 6.92800e+03 2.06800e+03
1113 6.92800e+03 3.60800e+03
1114 6.92800e+03 4.66400e+03
1115 1.12800e+04 6.99600e+03
1116 1.25920e+04 6.99600e+03
1117 1.34880e+04 3.60800e+03
1118 1.47680e+04 3.60800e+03
1119 1.49600e+04 3.60800e+03
1120 1.57600e+04 3.60800e+03
1121 1.58400e+04 3.60800e+03
1122 1.59200e+04 7.34800e+03
1123 1.23680e+04 5.72000e+02
1124 1.23680e+04 1.23200e+03
1125 1.23680e+04 3.93800e+03
1126 1.23680e+04 5.25800e+03
1127 1.16640e+04 6.99600e+03
1128 1.77760e+04 2.68400e+03
1129 1.24640e+04 3.93800e+03
1130 1.34880e+04 4.26800e+03
1131 1.32320e+04 6.66600e+03
1132 1.01920e+04 5.72000e+02
1133 9.44000e+02 7.37000e+03
1134 1.08480e+04 9.28400e+03
1135 1.70880e+04 9.28400e+03
1136 1.73440e+04 9.28400e+03
1137 4.59200e+03 4.84000e+03
1138 4.59200e+03 6.02800e+03
1139 1.10240e+04 5.72000e+02
1140 1.10240e+04 5.03800e+03
1141 2.38400e+03 7.43600e+03
1142 2.38400e+03 9.15200e+03
1143 2.38400e+03 1.14400e+04
1144 2.92800e+03 8.71200e+03
1145 2.92800e+03 9.15200e+03
1146 2.92800e+03 1.14400e+04
1147 2.54400e+03 7.54600e+03
1148 2.54400e+03 9.15200e+03
1149 2.54400e+03 1.14400e+04
1150 9.64800e+03 7.48000e+03
1151 2.04800e+03 7.17200e+03
1152 2.16000e+03 7.17200e+03
1153 2.22400e+03 7.17200e+03
1154 3.44000e+03 7.17200e+03
1155 1.74400e+03 9.04200e+03
1156 1.74400e+03 1.14400e+04
1157 2.09600e+03 9.15200e+03
1158 2.09600e+03 1.14400e+04
1159 3.05600e+03 1.14400e+04
1160 1.09600e+04 6.99600e+03
1161 2.99200e+03 8.71200e+03
1162 2.99200e+03 9.15200e+03
1163 1.08960e+04 6.99600e+03
1164 4.08000e+03 1.14400e+04
1165 1.61440e+04 9.06400e+03
1166 1.61440e+04 9.50400e+03
1167 1.42240e+04 6.77600e+03
1168 1.42240e+04 9.50400e+03
1169 1.42240e+04 1.02520e+04
1170 1.71040e+04 8.62400e+03
1171 1.71360e+04 7.34800e+03
1172 1.54400e+04 9.06400e+03
1173 1.54400e+04 9.50400e+03
1174 1.54400e+04 1.02520e+04
1175 1.57600e+04 7.78800e+03
1176 1.58560e+04 1.45200e+03
1177 4.20800e+03 4.84000e+03
1178 1.83200e+04 7.34800e+03
1179 1.57600e+04 4.18000e+03
1180 9.71200e+03 7.48000e+03
1181 1.70720e+04 1.45200e+03
1182 1.70720e+04 7.34800e+03
1183 1.64640e+04 9.50400e+03
1184 7.85600e+03 2.06800e+03
1185 7.85600e+03 2.50800e+03
1186 7.85600e+03 3.60800e+03
1187 7.85600e+03 4.48800e+03
1188 1.67200e+04 7.34800e+03
1189 1.55040e+04 9.06400e+03
1190 4.36800e+03 4.84000e+03
1191 6.00000e+03 1.11320e+04
1192 6.06400e+03 1.11320e+04
1193 4.68800e+03 5.80800e+03
1194 4.81600e+03 5.80800e+03
1195 4.88000e+03 5.80800e+03
1196 9.00800e+03 3.60800e+03
1197 1.57600e+04 9.06400e+03
1198 1.74240e+04 9.06400e+03
1199 1.85120e+04 8.29400e+03
1200 4.88000e+03 4.66400e+03
1201 4.88000e+03 5.36800e+03
1202 4.88000e+03 6.77600e+03
1203 4.68800e+03 4.48800e+03
1204 4.75200e+03 4.48800e+03
1205 4.81600e+03 4.48800e+03
1206 1.86080e+04 8.86600e+03
1207 1.44160e+04 9.50400e+03
1208 1.44160e+04 1.02520e+04
1209 1.57600e+04 7.34800e+03
1210 1.82240e+04 7.34800e+03
1211 1.34240e+04 6.77600e+03
1212 1.87040e+04 8.86600e+03
1213 1.10880e+04 4.92800e+03
1214 1.11680e+04 4.92800e+03
1215 1.24640e+04 5.36800e+03
1216 1.57600e+04 1.45200e+03
1217 1.57600e+04 9.50400e+03
1218 1.57600e+04 1.02520e+04
1219 4.32000e+02 7.48000e+03
1220 1.11680e+04 6.99600e+03
1221 1.34880e+04 6.77600e+03
1222 1.35840e+04 9.50400e+03
1223 1.34880e+04 5.36800e+03
1224 1.11840e+04 5.72000e+02
1225 4.46400e+03 4.84000e+03
1226 4.52800e+03 4.84000e+03
1227 4.81600e+03 5.36800e+03
1228 4.81600e+03 6.77600e+03
1229 1.10880e+04 5.72000e+02
1230 1.06720e+04 5.72000e+02
1231 1.02560e+04 5.72000e+02
1232 9.84000e+03 5.72000e+02
1233 4.43200e+03 2.20000e+02
1234 5.80800e+03 2.20000e+02
1235 1.55200e+03 8.93200e+03
1236 5.13600e+03 1.15280e+04
1237 5.55200e+03 1.15280e+04
1238 5.96800e+03 1.15280e+04
1239 5.48800e+03 7.30400e+03
1240 1.65760e+04 8.18400e+03
1241 6.09600e+03 2.64000e+02
1242 6.09600e+03 5.94000e+02
1243 1.82400e+03 6.86400e+03
1244 1.66400e+03 8.18400e+03
1245 5.93600e+03 3.30000e+02
1246 1.16160e+04 8.22800e+03
1247 1.95200e+03 8.18400e+03
1248 6.30400e+03 8.53600e+03
1249 6.36800e+03 8.84400e+03
1250 1.66880e+04 1.14070e+04
1251 3.48800e+03 7.48000e+03
1252 1.39200e+03 2.90400e+03
1253 1.39200e+03 5.85200e+03
1254 1.40800e+03 6.02800e+03
1255 1.17280e+04 1.13300e+04
1256 1.17280e+04 1.08680e+04
1257 6.89600e+03 2.20000e+02
1258 9.23200e+03 2.20000e+02
1259 8.27200e+03 8.75600e+03
1260 7.02400e+03 7.26000e+03
1261 1.47200e+04 4.92800e+03
1262 1.30720e+04 4.84000e+02
1263 1.54080e+04 4.84000e+02
1264 8.08000e+03 7.70000e+03
1265 1.00160e+04 9.06400e+03
1266 7.77600e+03 8.44800e+03
1267 1.53440e+04 7.78800e+03
1268 1.24000e+04 1.14840e+04
1269 1.24000e+04 1.11760e+04
1270 1.64960e+04 1.14840e+04
1271 1.64960e+04 1.11760e+04
1272 1.19360e+04 6.77600e+03
1273 1.18400e+04 6.33600e+03
1274 1.26720e+04 6.77600e+03
1275 3.31200e+03 1.06920e+04
1276 1.05440e+04 1.15280e+04
1277 1.18080e+04 8.22800e+03
1278 1.55360e+04 4.84000e+02
1279 1.81280e+04 3.52000e+02
1280 7.60000e+03 6.11600e+03
1281 1.17440e+04 8.22800e+03
1282 7.88800e+03 9.06400e+03
1283 1.09920e+04 1.15500e+04
1284 1.09920e+04 1.13080e+04
1285 1.20000e+04 6.77600e+03
1286 4.99200e+03 9.81200e+03
1287 5.88800e+03 5.06000e+03
1288 2.70400e+03 8.25000e+03
1289 1.66720e+04 6.24800e+03
1290 3.40800e+03 3.05800e+03
1291 3.40800e+03 6.16000e+03
1292 5.76000e+03 8.62400e+03
1293 6.52800e+03 8.84400e+03
1294 6.94400e+03 7.26000e+03
1295 7.40800e+03 1.09120e+04
1296 1.26080e+04 3.60800e+03
1297 1.23520e+04 6.11600e+03
1298 1.16480e+04 6.33600e+03
1299 1.24160e+04 6.11600e+03
1300 1.20960e+04 9.50400e+03
1301 1.32480e+04 9.28400e+03
1302 9.12000e+02 3.41000e+03
1303 9.12000e+02 6.86400e+03
1304 9.28000e+02 7.04000e+03
1305 1.48000e+04 8.00800e+03
1306 6.64000e+03 2.20000e+02
1307 6.83200e+03 2.20000e+02
1308 2.94400e+03 6.95200e+03
1309 9.66400e+03 7.78800e+03
1310 5.60000e+02 3.41000e+03
1311 5.60000e+02 6.86400e+03
1312 5.76000e+02 7.04000e+03
1313 1.72800e+03 8.18400e+03
1314 5.12000e+03 7.92000e+03
1315 2.08000e+03 8.93200e+03
1316 3.07200e+03 1.12200e+04
1317 2.97600e+03 1.06920e+04
1318 1.08480e+04 6.77600e+03
1319 8.84800e+03 9.06400e+03
1320 1.61120e+04 8.84400e+03
1321 1.71200e+04 8.40400e+03
1322 1.21600e+04 9.06400e+03
1323 1.35520e+04 1.14180e+04
EOF
